language Essence 1.3

letting bot_end be [1095, 32, 1151, 475, 856, 735, 920, 654, 775, 977, 106, 814, 830, 82, 730, 1115, 952; int(1..17)]
letting bot_start be [315, 759, 39, 1136, 3, 21, 68, 2, 62, 238, 1078, 48, 0, 978, 33, 310, 190; int(1..17)]
letting buffer_col be 2
letting buffer_row be 2
letting corridor_size be 1
letting n_shelves_col be 4
letting n_shelves_row be 34
letting shelf_col_size be 2
letting shelf_row_size be 1
